60
1 0 7
2 0 4
2 1 7
3 0 13
3 1 17
3 2 6
4 0 19
4 1 19
4 2 15
4 3 5
5 0 8
5 1 9
5 2 3
5 3 15
5 4 19
6 0 14
6 1 20
6 2 19
6 3 13
6 4 17
6 5 10
7 0 15
7 1 13
7 2 6
7 3 19
7 4 8
7 5 5
7 6 10
8 0 3
8 1 5
8 2 4
8 3 1
8 4 15
8 5 11
8 6 11
8 7 8
9 0 4
9 1 2
9 2 17
9 3 15
9 4 13
9 5 3
9 6 17
9 7 20
9 8 10
10 0 6
10 1 16
10 2 15
10 3 8
10 4 8
10 5 6
10 6 1
10 7 6
10 8 17
10 9 15
11 0 20
11 1 18
11 2 16
11 3 7
11 4 3
11 5 9
11 6 18
11 7 9
11 8 8
11 9 11
11 10 17
12 0 19
12 1 8
12 2 8
12 3 8
12 4 13
12 5 9
12 6 13
12 7 1
12 8 4
12 9 13
12 10 11
12 11 6
13 0 3
13 1 9
13 2 8
13 3 18
13 4 5
13 5 14
13 6 17
13 7 19
13 8 7
13 9 19
13 10 20
13 11 9
13 12 4
14 0 5
14 1 3
14 2 7
14 3 16
14 4 20
14 5 17
14 6 14
14 7 20
14 8 14
14 9 20
14 10 10
14 11 10
14 12 3
14 13 2
15 0 13
15 1 5
15 2 20
15 3 13
15 4 6
15 5 14
15 6 11
15 7 15
15 8 17
15 9 8
15 10 18
15 11 19
15 12 3
15 13 15
15 14 3
16 0 18
16 1 4
16 2 7
16 3 8
16 4 11
16 5 13
16 6 13
16 7 3
16 8 15
16 9 12
16 10 17
16 11 19
16 12 5
16 13 18
16 14 8
16 15 3
17 0 13
17 1 8
17 2 2
17 3 5
17 4 8
17 5 10
17 6 18
17 7 17
17 8 15
17 9 8
17 10 2
17 11 7
17 12 9
17 13 8
17 14 1
17 15 8
17 16 20
18 0 11
18 1 7
18 2 1
18 3 17
18 4 19
18 5 1
18 6 6
18 7 9
18 8 12
18 9 5
18 10 11
18 11 18
18 12 18
18 13 1
18 14 13
18 15 4
18 16 4
18 17 18
19 0 12
19 1 13
19 2 20
19 3 20
19 4 11
19 5 5
19 6 14
19 7 8
19 8 18
19 9 2
19 10 20
19 11 2
19 12 9
19 13 9
19 14 19
19 15 17
19 16 16
19 17 17
19 18 7
20 0 15
20 1 8
20 2 2
20 3 9
20 4 8
20 5 6
20 6 1
20 7 17
20 8 14
20 9 1
20 10 15
20 11 7
20 12 14
20 13 13
20 14 8
20 15 11
20 16 15
20 17 13
20 18 6
20 19 9
21 0 16
21 1 16
21 2 14
21 3 5
21 4 4
21 5 7
21 6 17
21 7 3
21 8 7
21 9 16
21 10 19
21 11 18
21 12 1
21 13 13
21 14 13
21 15 1
21 16 1
21 17 14
21 18 3
21 19 12
21 20 6
22 0 7
22 1 8
22 2 9
22 3 11
22 4 16
22 5 14
22 6 13
22 7 8
22 8 8
22 9 9
22 10 5
22 11 2
22 12 8
22 13 11
22 14 9
22 15 3
22 16 4
22 17 10
22 18 14
22 19 7
22 20 5
22 21 20
23 0 8
23 1 14
23 2 10
23 3 14
23 4 20
23 5 2
23 6 5
23 7 16
23 8 18
23 9 2
23 10 12
23 11 5
23 12 8
23 13 5
23 14 13
23 15 10
23 16 2
23 17 14
23 18 13
23 19 5
23 20 19
23 21 8
23 22 2
24 0 18
24 1 12
24 2 3
24 3 4
24 4 19
24 5 7
24 6 20
24 7 16
24 8 7
24 9 11
24 10 16
24 11 5
24 12 11
24 13 19
24 14 16
24 15 3
24 16 18
24 17 16
24 18 13
24 19 6
24 20 3
24 21 1
24 22 5
24 23 8
25 0 14
25 1 5
25 2 11
25 3 7
25 4 8
25 5 6
25 6 20
25 7 4
25 8 6
25 9 15
25 10 16
25 11 3
25 12 4
25 13 7
25 14 1
25 15 17
25 16 11
25 17 7
25 18 15
25 19 12
25 20 1
25 21 18
25 22 9
25 23 6
25 24 4
26 0 4
26 1 18
26 2 16
26 3 17
26 4 9
26 5 14
26 6 6
26 7 17
26 8 15
26 9 5
26 10 17
26 11 12
26 12 19
26 13 5
26 14 2
26 15 20
26 16 8
26 17 14
26 18 1
26 19 7
26 20 19
26 21 18
26 22 1
26 23 10
26 24 13
26 25 20
27 0 14
27 1 11
27 2 13
27 3 10
27 4 2
27 5 9
27 6 20
27 7 17
27 8 14
27 9 13
27 10 8
27 11 5
27 12 1
27 13 4
27 14 10
27 15 3
27 16 7
27 17 11
27 18 4
27 19 11
27 20 13
27 21 12
27 22 15
27 23 15
27 24 4
27 25 15
27 26 17
28 0 9
28 1 14
28 2 1
28 3 11
28 4 6
28 5 17
28 6 12
28 7 6
28 8 4
28 9 11
28 10 6
28 11 14
28 12 11
28 13 4
28 14 10
28 15 16
28 16 17
28 17 1
28 18 12
28 19 9
28 20 12
28 21 7
28 22 11
28 23 8
28 24 3
28 25 14
28 26 17
28 27 7
29 0 13
29 1 16
29 2 13
29 3 8
29 4 18
29 5 1
29 6 3
29 7 12
29 8 4
29 9 17
29 10 5
29 11 13
29 12 15
29 13 18
29 14 1
29 15 14
29 16 1
29 17 13
29 18 18
29 19 19
29 20 19
29 21 2
29 22 7
29 23 17
29 24 19
29 25 19
29 26 16
29 27 20
29 28 2
30 0 8
30 1 19
30 2 9
30 3 5
30 4 9
30 5 8
30 6 6
30 7 14
30 8 19
30 9 15
30 10 9
30 11 5
30 12 5
30 13 9
30 14 8
30 15 2
30 16 18
30 17 15
30 18 15
30 19 6
30 20 16
30 21 12
30 22 2
30 23 3
30 24 12
30 25 3
30 26 10
30 27 7
30 28 8
30 29 1
31 0 7
31 1 3
31 2 13
31 3 20
31 4 3
31 5 2
31 6 4
31 7 1
31 8 16
31 9 11
31 10 18
31 11 11
31 12 2
31 13 15
31 14 20
31 15 9
31 16 16
31 17 16
31 18 4
31 19 19
31 20 9
31 21 18
31 22 6
31 23 15
31 24 18
31 25 3
31 26 18
31 27 20
31 28 8
31 29 16
31 30 7
32 0 11
32 1 20
32 2 15
32 3 11
32 4 5
32 5 5
32 6 8
32 7 7
32 8 10
32 9 1
32 10 6
32 11 17
32 12 1
32 13 8
32 14 15
32 15 13
32 16 7
32 17 19
32 18 1
32 19 16
32 20 14
32 21 9
32 22 6
32 23 1
32 24 14
32 25 12
32 26 16
32 27 19
32 28 1
32 29 3
32 30 16
32 31 7
33 0 2
33 1 19
33 2 16
33 3 14
33 4 15
33 5 5
33 6 3
33 7 12
33 8 6
33 9 17
33 10 13
33 11 4
33 12 6
33 13 8
33 14 16
33 15 17
33 16 4
33 17 5
33 18 10
33 19 13
33 20 9
33 21 1
33 22 9
33 23 15
33 24 19
33 25 11
33 26 16
33 27 10
33 28 12
33 29 3
33 30 11
33 31 6
33 32 14
34 0 5
34 1 12
34 2 15
34 3 11
34 4 19
34 5 16
34 6 12
34 7 11
34 8 12
34 9 6
34 10 13
34 11 20
34 12 15
34 13 3
34 14 16
34 15 16
34 16 15
34 17 3
34 18 12
34 19 18
34 20 8
34 21 15
34 22 1
34 23 18
34 24 15
34 25 15
34 26 11
34 27 19
34 28 2
34 29 13
34 30 14
34 31 14
34 32 7
34 33 17
35 0 12
35 1 5
35 2 18
35 3 5
35 4 4
35 5 16
35 6 1
35 7 16
35 8 5
35 9 7
35 10 3
35 11 6
35 12 9
35 13 13
35 14 9
35 15 6
35 16 5
35 17 19
35 18 4
35 19 1
35 20 4
35 21 20
35 22 20
35 23 2
35 24 15
35 25 5
35 26 12
35 27 3
35 28 5
35 29 10
35 30 6
35 31 9
35 32 20
35 33 4
35 34 13
36 0 15
36 1 1
36 2 20
36 3 10
36 4 6
36 5 17
36 6 15
36 7 16
36 8 3
36 9 6
36 10 19
36 11 2
36 12 9
36 13 2
36 14 10
36 15 17
36 16 12
36 17 6
36 18 9
36 19 11
36 20 15
36 21 19
36 22 13
36 23 4
36 24 7
36 25 2
36 26 14
36 27 12
36 28 10
36 29 18
36 30 6
36 31 7
36 32 19
36 33 18
36 34 8
36 35 8
37 0 14
37 1 15
37 2 1
37 3 13
37 4 19
37 5 6
37 6 6
37 7 2
37 8 5
37 9 2
37 10 14
37 11 18
37 12 14
37 13 15
37 14 6
37 15 5
37 16 9
37 17 8
37 18 15
37 19 3
37 20 12
37 21 6
37 22 15
37 23 4
37 24 3
37 25 16
37 26 17
37 27 17
37 28 8
37 29 20
37 30 10
37 31 12
37 32 6
37 33 16
37 34 3
37 35 18
37 36 17
38 0 13
38 1 15
38 2 6
38 3 6
38 4 20
38 5 6
38 6 12
38 7 18
38 8 16
38 9 2
38 10 6
38 11 4
38 12 5
38 13 2
38 14 10
38 15 13
38 16 5
38 17 20
38 18 1
38 19 8
38 20 5
38 21 11
38 22 10
38 23 19
38 24 9
38 25 15
38 26 15
38 27 20
38 28 1
38 29 4
38 30 9
38 31 6
38 32 2
38 33 15
38 34 3
38 35 2
38 36 13
38 37 1
39 0 2
39 1 14
39 2 12
39 3 1
39 4 6
39 5 11
39 6 19
39 7 10
39 8 16
39 9 19
39 10 2
39 11 13
39 12 10
39 13 5
39 14 1
39 15 7
39 16 6
39 17 8
39 18 16
39 19 15
39 20 17
39 21 17
39 22 20
39 23 3
39 24 5
39 25 12
39 26 5
39 27 17
39 28 6
39 29 20
39 30 11
39 31 9
39 32 2
39 33 11
39 34 2
39 35 15
39 36 17
39 37 5
39 38 14
40 0 8
40 1 6
40 2 1
40 3 1
40 4 9
40 5 16
40 6 9
40 7 1
40 8 9
40 9 6
40 10 5
40 11 5
40 12 18
40 13 9
40 14 6
40 15 3
40 16 19
40 17 15
40 18 16
40 19 2
40 20 17
40 21 18
40 22 2
40 23 6
40 24 10
40 25 19
40 26 15
40 27 18
40 28 5
40 29 19
40 30 7
40 31 15
40 32 10
40 33 8
40 34 4
40 35 20
40 36 16
40 37 7
40 38 6
40 39 2
41 0 19
41 1 4
41 2 1
41 3 3
41 4 10
41 5 6
41 6 18
41 7 2
41 8 8
41 9 3
41 10 18
41 11 8
41 12 10
41 13 20
41 14 1
41 15 16
41 16 16
41 17 7
41 18 7
41 19 4
41 20 15
41 21 7
41 22 17
41 23 19
41 24 16
41 25 2
41 26 10
41 27 11
41 28 15
41 29 5
41 30 18
41 31 17
41 32 3
41 33 9
41 34 18
41 35 9
41 36 11
41 37 12
41 38 5
41 39 9
41 40 18
42 0 2
42 1 10
42 2 19
42 3 13
42 4 19
42 5 4
42 6 17
42 7 7
42 8 12
42 9 20
42 10 16
42 11 16
42 12 19
42 13 19
42 14 19
42 15 9
42 16 8
42 17 11
42 18 18
42 19 10
42 20 9
42 21 13
42 22 16
42 23 1
42 24 20
42 25 11
42 26 1
42 27 12
42 28 6
42 29 19
42 30 14
42 31 12
42 32 16
42 33 16
42 34 3
42 35 16
42 36 18
42 37 2
42 38 8
42 39 11
42 40 20
42 41 1
43 0 14
43 1 16
43 2 7
43 3 13
43 4 18
43 5 14
43 6 13
43 7 11
43 8 18
43 9 14
43 10 12
43 11 9
43 12 20
43 13 11
43 14 10
43 15 4
43 16 2
43 17 18
43 18 17
43 19 9
43 20 1
43 21 20
43 22 12
43 23 8
43 24 10
43 25 8
43 26 2
43 27 17
43 28 3
43 29 1
43 30 7
43 31 3
43 32 9
43 33 7
43 34 1
43 35 16
43 36 11
43 37 15
43 38 1
43 39 3
43 40 10
43 41 4
43 42 20
44 0 9
44 1 6
44 2 6
44 3 13
44 4 10
44 5 13
44 6 1
44 7 5
44 8 1
44 9 10
44 10 5
44 11 7
44 12 9
44 13 13
44 14 9
44 15 8
44 16 16
44 17 16
44 18 12
44 19 6
44 20 7
44 21 13
44 22 17
44 23 19
44 24 20
44 25 17
44 26 14
44 27 19
44 28 7
44 29 6
44 30 19
44 31 5
44 32 2
44 33 17
44 34 10
44 35 17
44 36 10
44 37 16
44 38 18
44 39 14
44 40 11
44 41 11
44 42 12
44 43 16
45 0 6
45 1 3
45 2 12
45 3 10
45 4 6
45 5 8
45 6 1
45 7 13
45 8 2
45 9 2
45 10 11
45 11 15
45 12 10
45 13 6
45 14 7
45 15 6
45 16 6
45 17 18
45 18 20
45 19 14
45 20 17
45 21 7
45 22 16
45 23 6
45 24 8
45 25 8
45 26 16
45 27 15
45 28 12
45 29 6
45 30 15
45 31 20
45 32 9
45 33 13
45 34 18
45 35 12
45 36 20
45 37 20
45 38 4
45 39 20
45 40 18
45 41 10
45 42 5
45 43 10
45 44 2
46 0 7
46 1 7
46 2 2
46 3 9
46 4 4
46 5 4
46 6 12
46 7 5
46 8 13
46 9 7
46 10 14
46 11 11
46 12 2
46 13 20
46 14 2
46 15 3
46 16 3
46 17 9
46 18 15
46 19 13
46 20 11
46 21 17
46 22 12
46 23 6
46 24 16
46 25 16
46 26 20
46 27 7
46 28 16
46 29 12
46 30 13
46 31 19
46 32 17
46 33 17
46 34 16
46 35 5
46 36 20
46 37 8
46 38 17
46 39 15
46 40 1
46 41 14
46 42 10
46 43 6
46 44 1
46 45 19
47 0 12
47 1 13
47 2 19
47 3 10
47 4 18
47 5 12
47 6 2
47 7 6
47 8 10
47 9 13
47 10 16
47 11 6
47 12 12
47 13 3
47 14 9
47 15 13
47 16 16
47 17 15
47 18 7
47 19 12
47 20 12
47 21 1
47 22 3
47 23 2
47 24 1
47 25 12
47 26 14
47 27 10
47 28 5
47 29 1
47 30 3
47 31 3
47 32 17
47 33 16
47 34 12
47 35 14
47 36 18
47 37 18
47 38 18
47 39 3
47 40 1
47 41 3
47 42 18
47 43 16
47 44 18
47 45 16
47 46 17
48 0 17
48 1 1
48 2 5
48 3 13
48 4 12
48 5 20
48 6 6
48 7 5
48 8 8
48 9 5
48 10 19
48 11 20
48 12 11
48 13 3
48 14 19
48 15 11
48 16 15
48 17 12
48 18 12
48 19 7
48 20 14
48 21 3
48 22 20
48 23 10
48 24 11
48 25 17
48 26 15
48 27 13
48 28 3
48 29 2
48 30 13
48 31 19
48 32 1
48 33 4
48 34 12
48 35 20
48 36 7
48 37 1
48 38 19
48 39 16
48 40 3
48 41 1
48 42 8
48 43 2
48 44 17
48 45 8
48 46 20
48 47 19
49 0 19
49 1 5
49 2 2
49 3 5
49 4 18
49 5 6
49 6 3
49 7 12
49 8 10
49 9 18
49 10 18
49 11 7
49 12 12
49 13 3
49 14 14
49 15 8
49 16 5
49 17 7
49 18 16
49 19 17
49 20 9
49 21 19
49 22 18
49 23 15
49 24 9
49 25 5
49 26 3
49 27 4
49 28 4
49 29 10
49 30 16
49 31 2
49 32 9
49 33 19
49 34 8
49 35 10
49 36 9
49 37 16
49 38 4
49 39 10
49 40 3
49 41 2
49 42 11
49 43 14
49 44 15
49 45 2
49 46 14
49 47 3
49 48 15
50 0 5
50 1 19
50 2 18
50 3 15
50 4 6
50 5 9
50 6 19
50 7 17
50 8 2
50 9 20
50 10 20
50 11 6
50 12 19
50 13 12
50 14 4
50 15 13
50 16 7
50 17 11
50 18 19
50 19 20
50 20 6
50 21 9
50 22 11
50 23 5
50 24 9
50 25 2
50 26 1
50 27 13
50 28 10
50 29 17
50 30 13
50 31 14
50 32 15
50 33 2
50 34 12
50 35 20
50 36 11
50 37 10
50 38 6
50 39 6
50 40 16
50 41 18
50 42 2
50 43 12
50 44 4
50 45 20
50 46 4
50 47 8
50 48 17
50 49 10
51 0 9
51 1 14
51 2 19
51 3 16
51 4 10
51 5 9
51 6 12
51 7 6
51 8 17
51 9 9
51 10 17
51 11 14
51 12 11
51 13 8
51 14 2
51 15 20
51 16 16
51 17 1
51 18 9
51 19 6
51 20 9
51 21 16
51 22 15
51 23 5
51 24 8
51 25 7
51 26 11
51 27 2
51 28 8
51 29 20
51 30 18
51 31 16
51 32 4
51 33 5
51 34 17
51 35 10
51 36 19
51 37 18
51 38 4
51 39 1
51 40 1
51 41 10
51 42 17
51 43 6
51 44 16
51 45 17
51 46 8
51 47 1
51 48 15
51 49 9
51 50 7
52 0 11
52 1 3
52 2 9
52 3 4
52 4 12
52 5 12
52 6 4
52 7 3
52 8 6
52 9 12
52 10 1
52 11 14
52 12 16
52 13 5
52 14 9
52 15 11
52 16 19
52 17 16
52 18 8
52 19 8
52 20 8
52 21 12
52 22 3
52 23 2
52 24 17
52 25 5
52 26 20
52 27 2
52 28 9
52 29 18
52 30 14
52 31 16
52 32 20
52 33 10
52 34 7
52 35 10
52 36 9
52 37 7
52 38 7
52 39 14
52 40 2
52 41 15
52 42 7
52 43 5
52 44 7
52 45 19
52 46 9
52 47 8
52 48 17
52 49 9
52 50 3
52 51 1
53 0 10
53 1 13
53 2 15
53 3 4
53 4 15
53 5 20
53 6 6
53 7 7
53 8 14
53 9 1
53 10 14
53 11 13
53 12 13
53 13 8
53 14 12
53 15 10
53 16 9
53 17 20
53 18 10
53 19 13
53 20 3
53 21 5
53 22 18
53 23 1
53 24 15
53 25 3
53 26 10
53 27 15
53 28 19
53 29 11
53 30 14
53 31 8
53 32 7
53 33 3
53 34 8
53 35 7
53 36 7
53 37 17
53 38 18
53 39 5
53 40 18
53 41 15
53 42 4
53 43 17
53 44 9
53 45 3
53 46 20
53 47 20
53 48 2
53 49 15
53 50 10
53 51 15
53 52 4
54 0 6
54 1 13
54 2 7
54 3 14
54 4 17
54 5 15
54 6 14
54 7 19
54 8 1
54 9 19
54 10 3
54 11 18
54 12 5
54 13 20
54 14 13
54 15 2
54 16 11
54 17 8
54 18 11
54 19 8
54 20 18
54 21 4
54 22 9
54 23 7
54 24 12
54 25 1
54 26 3
54 27 14
54 28 3
54 29 9
54 30 7
54 31 16
54 32 8
54 33 11
54 34 12
54 35 4
54 36 9
54 37 9
54 38 8
54 39 9
54 40 17
54 41 16
54 42 4
54 43 16
54 44 10
54 45 2
54 46 11
54 47 5
54 48 8
54 49 15
54 50 16
54 51 15
54 52 1
54 53 6
55 0 7
55 1 3
55 2 15
55 3 20
55 4 17
55 5 3
55 6 10
55 7 12
55 8 18
55 9 6
55 10 15
55 11 8
55 12 19
55 13 9
55 14 2
55 15 12
55 16 4
55 17 17
55 18 2
55 19 8
55 20 18
55 21 7
55 22 10
55 23 17
55 24 6
55 25 17
55 26 12
55 27 5
55 28 18
55 29 13
55 30 15
55 31 3
55 32 10
55 33 7
55 34 1
55 35 10
55 36 4
55 37 4
55 38 4
55 39 3
55 40 5
55 41 19
55 42 12
55 43 14
55 44 7
55 45 12
55 46 7
55 47 20
55 48 10
55 49 7
55 50 12
55 51 15
55 52 7
55 53 10
55 54 4
56 0 16
56 1 7
56 2 13
56 3 11
56 4 10
56 5 9
56 6 18
56 7 20
56 8 16
56 9 7
56 10 4
56 11 16
56 12 14
56 13 16
56 14 19
56 15 7
56 16 7
56 17 4
56 18 9
56 19 12
56 20 14
56 21 6
56 22 20
56 23 6
56 24 20
56 25 14
56 26 13
56 27 7
56 28 17
56 29 20
56 30 11
56 31 5
56 32 18
56 33 11
56 34 18
56 35 8
56 36 1
56 37 4
56 38 5
56 39 14
56 40 6
56 41 6
56 42 7
56 43 12
56 44 2
56 45 4
56 46 19
56 47 18
56 48 1
56 49 14
56 50 3
56 51 10
56 52 3
56 53 4
56 54 16
56 55 6
57 0 11
57 1 19
57 2 20
57 3 14
57 4 8
57 5 19
57 6 5
57 7 11
57 8 8
57 9 18
57 10 8
57 11 7
57 12 10
57 13 7
57 14 5
57 15 20
57 16 15
57 17 20
57 18 3
57 19 16
57 20 9
57 21 9
57 22 2
57 23 4
57 24 2
57 25 10
57 26 17
57 27 3
57 28 5
57 29 10
57 30 19
57 31 18
57 32 3
57 33 9
57 34 1
57 35 19
57 36 17
57 37 9
57 38 14
57 39 11
57 40 16
57 41 15
57 42 9
57 43 3
57 44 10
57 45 2
57 46 5
57 47 14
57 48 2
57 49 19
57 50 2
57 51 16
57 52 11
57 53 6
57 54 11
57 55 6
57 56 17
58 0 7
58 1 13
58 2 3
58 3 14
58 4 9
58 5 4
58 6 14
58 7 11
58 8 14
58 9 18
58 10 15
58 11 5
58 12 3
58 13 1
58 14 12
58 15 12
58 16 2
58 17 9
58 18 8
58 19 8
58 20 19
58 21 5
58 22 15
58 23 5
58 24 14
58 25 3
58 26 10
58 27 8
58 28 12
58 29 12
58 30 12
58 31 3
58 32 12
58 33 18
58 34 6
58 35 7
58 36 4
58 37 15
58 38 13
58 39 17
58 40 4
58 41 14
58 42 9
58 43 3
58 44 11
58 45 15
58 46 11
58 47 5
58 48 7
58 49 5
58 50 1
58 51 8
58 52 5
58 53 17
58 54 11
58 55 13
58 56 9
58 57 8
59 0 15
59 1 18
59 2 1
59 3 13
59 4 20
59 5 9
59 6 6
59 7 3
59 8 17
59 9 6
59 10 9
59 11 12
59 12 4
59 13 5
59 14 12
59 15 17
59 16 8
59 17 11
59 18 13
59 19 1
59 20 1
59 21 6
59 22 6
59 23 12
59 24 16
59 25 4
59 26 6
59 27 4
59 28 8
59 29 12
59 30 3
59 31 19
59 32 14
59 33 16
59 34 1
59 35 19
59 36 6
59 37 8
59 38 1
59 39 2
59 40 19
59 41 16
59 42 13
59 43 18
59 44 20
59 45 3
59 46 5
59 47 17
59 48 14
59 49 14
59 50 18
59 51 4
59 52 16
59 53 19
59 54 19
59 55 9
59 56 8
59 57 5
59 58 3
